p cnf 32 340
-1 -17 0
-1 -18 0
-1 -19 0
-1 -20 0
-2 -17 0
-2 -18 0
-2 -19 0
-2 -20 0
-3 -17 0
-3 -18 0
-3 -19 0
-3 -20 0
-4 -17 0
-4 -18 0
-4 -19 0
-4 -20 0
-1 -49 0
-1 -50 0
-1 -51 0
-1 -52 0
-2 -49 0
-2 -50 0
-2 -51 0
-2 -52 0
-3 -49 0
-3 -50 0
-3 -51 0
-3 -52 0
-4 -49 0
-4 -50 0
-4 -51 0
-4 -52 0
-1 -57 0
-1 -58 0
-1 -59 0
-1 -60 0
-2 -57 0
-2 -58 0
-2 -59 0
-2 -60 0
-3 -57 0
-3 -58 0
-3 -59 0
-3 -60 0
-4 -57 0
-4 -58 0
-4 -59 0
-4 -60 0
-9 -57 0
-9 -58 0
-9 -59 0
-9 -60 0
-10 -57 0
-10 -58 0
-10 -59 0
-10 -60 0
-11 -57 0
-11 -58 0
-11 -59 0
-11 -60 0
-12 -57 0
-12 -58 0
-12 -59 0
-12 -60 0
-17 -25 0
-17 -26 0
-17 -27 0
-17 -28 0
-18 -25 0
-18 -26 0
-18 -27 0
-18 -28 0
-19 -25 0
-19 -26 0
-19 -27 0
-19 -28 0
-20 -25 0
-20 -26 0
-20 -27 0
-20 -28 0
-17 -33 0
-17 -34 0
-17 -35 0
-17 -36 0
-18 -33 0
-18 -34 0
-18 -35 0
-18 -36 0
-19 -33 0
-19 -34 0
-19 -35 0
-19 -36 0
-20 -33 0
-20 -34 0
-20 -35 0
-20 -36 0
-17 -41 0
-17 -42 0
-17 -43 0
-17 -44 0
-18 -41 0
-18 -42 0
-18 -43 0
-18 -44 0
-19 -41 0
-19 -42 0
-19 -43 0
-19 -44 0
-20 -41 0
-20 -42 0
-20 -43 0
-20 -44 0
-25 -33 0
-25 -34 0
-25 -35 0
-25 -36 0
-26 -33 0
-26 -34 0
-26 -35 0
-26 -36 0
-27 -33 0
-27 -34 0
-27 -35 0
-27 -36 0
-28 -33 0
-28 -34 0
-28 -35 0
-28 -36 0
-41 -49 0
-41 -50 0
-41 -51 0
-41 -52 0
-42 -49 0
-42 -50 0
-42 -51 0
-42 -52 0
-43 -49 0
-43 -50 0
-43 -51 0
-43 -52 0
-44 -49 0
-44 -50 0
-44 -51 0
-44 -52 0
-41 -57 0
-41 -58 0
-41 -59 0
-41 -60 0
-42 -57 0
-42 -58 0
-42 -59 0
-42 -60 0
-43 -57 0
-43 -58 0
-43 -59 0
-43 -60 0
-44 -57 0
-44 -58 0
-44 -59 0
-44 -60 0
-49 -57 0
-49 -58 0
-49 -59 0
-49 -60 0
-50 -57 0
-50 -58 0
-50 -59 0
-50 -60 0
-51 -57 0
-51 -58 0
-51 -59 0
-51 -60 0
-52 -57 0
-52 -58 0
-52 -59 0
-52 -60 0
-1 -9 0
-1 -17 0
-1 -25 0
-1 -33 0
-1 -41 0
-1 -49 0
-1 -57 0
-9 -17 0
-9 -25 0
-9 -33 0
-9 -41 0
-9 -49 0
-9 -57 0
-17 -25 0
-17 -33 0
-17 -41 0
-17 -49 0
-17 -57 0
-25 -33 0
-25 -41 0
-25 -49 0
-25 -57 0
-33 -41 0
-33 -49 0
-33 -57 0
-41 -49 0
-41 -57 0
-49 -57 0
1 9 17 25 33 41 49 57 0
-2 -10 0
-2 -18 0
-2 -26 0
-2 -34 0
-2 -42 0
-2 -50 0
-2 -58 0
-10 -18 0
-10 -26 0
-10 -34 0
-10 -42 0
-10 -50 0
-10 -58 0
-18 -26 0
-18 -34 0
-18 -42 0
-18 -50 0
-18 -58 0
-26 -34 0
-26 -42 0
-26 -50 0
-26 -58 0
-34 -42 0
-34 -50 0
-34 -58 0
-42 -50 0
-42 -58 0
-50 -58 0
2 10 18 26 34 42 50 58 0
-3 -11 0
-3 -19 0
-3 -27 0
-3 -35 0
-3 -43 0
-3 -51 0
-3 -59 0
-11 -19 0
-11 -27 0
-11 -35 0
-11 -43 0
-11 -51 0
-11 -59 0
-19 -27 0
-19 -35 0
-19 -43 0
-19 -51 0
-19 -59 0
-27 -35 0
-27 -43 0
-27 -51 0
-27 -59 0
-35 -43 0
-35 -51 0
-35 -59 0
-43 -51 0
-43 -59 0
-51 -59 0
3 11 19 27 35 43 51 59 0
-4 -12 0
-4 -20 0
-4 -28 0
-4 -36 0
-4 -44 0
-4 -52 0
-4 -60 0
-12 -20 0
-12 -28 0
-12 -36 0
-12 -44 0
-12 -52 0
-12 -60 0
-20 -28 0
-20 -36 0
-20 -44 0
-20 -52 0
-20 -60 0
-28 -36 0
-28 -44 0
-28 -52 0
-28 -60 0
-36 -44 0
-36 -52 0
-36 -60 0
-44 -52 0
-44 -60 0
-52 -60 0
4 12 20 28 36 44 52 60 0
-1 -2 0
-1 -3 0
-1 -4 0
-2 -3 0
-2 -4 0
-3 -4 0
-9 -10 0
-9 -11 0
-9 -12 0
-10 -11 0
-10 -12 0
-11 -12 0
-17 -18 0
-17 -19 0
-17 -20 0
-18 -19 0
-18 -20 0
-19 -20 0
-25 -26 0
-25 -27 0
-25 -28 0
-26 -27 0
-26 -28 0
-27 -28 0
-33 -34 0
-33 -35 0
-33 -36 0
-34 -35 0
-34 -36 0
-35 -36 0
-41 -42 0
-41 -43 0
-41 -44 0
-42 -43 0
-42 -44 0
-43 -44 0
-49 -50 0
-49 -51 0
-49 -52 0
-50 -51 0
-50 -52 0
-51 -52 0
-57 -58 0
-57 -59 0
-57 -60 0
-58 -59 0
-58 -60 0
-59 -60 0
